Academic license - for non-commercial use only
Gurobi Optimizer version 9.0.3 build v9.0.3rc0 (mac64)
Optimize a model with 175196 rows, 160320 columns and 920780 nonzeros
Model fingerprint: 0x52b401dd
Variable types: 0 continuous, 160320 integer (160320 binary)
Coefficient statistics:
  Matrix range     [1e+00, 1e+00]
  Objective range  [1e+01, 1e+05]
  Bounds range     [1e+00, 1e+00]
  RHS range        [1e+00, 1e+03]
Presolve removed 20 rows and 20 columns
Presolve time: 2.21s
Presolved: 175176 rows, 160300 columns, 920740 nonzeros
Variable types: 0 continuous, 160300 integer (160300 binary)
Found heuristic solution: objective 640600.00000

Concurrent LP optimizer: dual simplex and barrier
Showing barrier log only...

Root barrier log...

Ordering time: 0.05s

Barrier statistics:
 Dense cols : 160
 AA' NZ     : 8.027e+05
 Factor NZ  : 3.695e+06 (roughly 170 MBytes of memory)
 Factor Ops : 1.996e+08 (less than 1 second per iteration)
 Threads    : 3

                  Objective                Residual
Iter       Primal          Dual         Primal    Dual     Compl     Time
   0   8.16526787e+07 -1.35613464e+05  9.31e+01 0.00e+00  2.31e+03     6s
   1   8.81996450e+05 -2.38207376e+07  4.04e-01 6.71e+03  5.90e+01     6s
   2   7.59740287e+05 -2.06917563e+06  1.11e-01 5.11e+02  5.99e+00     6s
   3   7.22364984e+05  2.10335064e+04  6.06e-02 9.71e+01  1.42e+00     7s
   4   6.01129948e+05  3.62205559e+05  5.60e-03 3.01e+01  4.85e-01     7s
   5   5.62723396e+05  4.55020136e+05  2.50e-03 1.30e+01  2.18e-01     7s
   6   5.44192409e+05  4.79654232e+05  1.36e-03 8.37e+00  1.31e-01     7s
   7   5.34490143e+05  4.95304652e+05  8.35e-04 4.98e+00  7.94e-02     7s
   8   5.28876944e+05  5.05185412e+05  5.40e-04 2.92e+00  4.80e-02     7s
   9   5.26110572e+05  5.07966311e+05  4.04e-04 2.32e+00  3.68e-02     8s
  10   5.24927823e+05  5.09722000e+05  3.45e-04 1.89e+00  3.08e-02     8s
  11   5.23378194e+05  5.10575149e+05  2.69e-04 1.68e+00  2.60e-02     8s
  12   5.22388835e+05  5.12806456e+05  2.21e-04 1.18e+00  1.94e-02     8s
  13   5.21325357e+05  5.14170206e+05  1.74e-04 8.62e-01  1.45e-02     8s
  14   5.20525025e+05  5.14762015e+05  1.38e-04 7.19e-01  1.17e-02     9s
  15   5.19786518e+05  5.15268978e+05  1.04e-04 6.00e-01  9.15e-03     9s
  16   5.19396491e+05  5.15633299e+05  8.54e-05 5.12e-01  7.63e-03     9s
  17   5.19061387e+05  5.16175602e+05  6.94e-05 3.78e-01  5.84e-03     9s
  18   5.18854511e+05  5.16511781e+05  5.97e-05 2.92e-01  4.74e-03     9s
  19   5.18658094e+05  5.16615213e+05  5.05e-05 2.64e-01  4.14e-03     9s
  20   5.18480573e+05  5.16737747e+05  4.23e-05 2.31e-01  3.53e-03    10s
  21   5.18324876e+05  5.16938172e+05  3.54e-05 1.76e-01  2.81e-03    10s
  22   5.18215697e+05  5.17047623e+05  3.03e-05 1.47e-01  2.36e-03    10s
  23   5.18071528e+05  5.17130268e+05  2.37e-05 1.24e-01  1.91e-03    10s
  24   5.17964405e+05  5.17197789e+05  1.86e-05 1.05e-01  1.55e-03    10s
  25   5.17869962e+05  5.17258882e+05  1.43e-05 8.75e-02  1.24e-03    11s
  26   5.17839532e+05  5.17332053e+05  1.29e-05 6.81e-02  1.03e-03    11s
  27   5.17776975e+05  5.17360698e+05  1.00e-05 6.02e-02  8.44e-04    11s
  28   5.17749881e+05  5.17414404e+05  8.72e-06 4.51e-02  6.79e-04    11s
  29   5.17709720e+05  5.17426700e+05  6.88e-06 4.13e-02  5.74e-04    11s
  30   5.17678631e+05  5.17467830e+05  5.40e-06 2.95e-02  4.27e-04    11s
  31   5.17650408e+05  5.17484972e+05  4.06e-06 2.43e-02  3.35e-04    12s
  32   5.17630952e+05  5.17498712e+05  3.16e-06 2.01e-02  2.68e-04    12s
  33   5.17619776e+05  5.17508926e+05  2.64e-06 1.69e-02  2.25e-04    12s
  34   5.17604982e+05  5.17519728e+05  1.96e-06 1.36e-02  1.73e-04    12s
  35   5.17599571e+05  5.17530079e+05  1.72e-06 1.05e-02  1.41e-04    12s
  36   5.17594198e+05  5.17532992e+05  1.46e-06 9.53e-03  1.24e-04    12s
  37   5.17587984e+05  5.17538747e+05  1.17e-06 7.65e-03  9.99e-05    13s
  38   5.17584384e+05  5.17541343e+05  1.01e-06 6.82e-03  8.73e-05    13s
  39   5.17580946e+05  5.17545644e+05  8.53e-07 5.43e-03  7.16e-05    13s
  40   5.17576546e+05  5.17549816e+05  6.50e-07 4.06e-03  5.42e-05    13s
  41   5.17573863e+05  5.17553448e+05  5.28e-07 2.91e-03  4.14e-05    13s
  42   5.17571325e+05  5.17555500e+05  4.11e-07 2.22e-03  3.20e-05    14s
  43   5.17569459e+05  5.17556658e+05  3.26e-07 1.80e-03  2.59e-05    14s
  44   5.17567359e+05  5.17558079e+05  2.29e-07 1.33e-03  1.88e-05    14s
  45   5.17565603e+05  5.17558589e+05  1.52e-07 1.16e-03  1.42e-05    14s
  46   5.17564704e+05  5.17559437e+05  1.12e-07 8.80e-04  1.07e-05    14s
  47   5.17564491e+05  5.17559545e+05  1.03e-07 8.51e-04  1.01e-05    14s
  48   5.17564119e+05  5.17559900e+05  8.59e-08 7.38e-04  8.58e-06    15s
  49   5.17563861e+05  5.17560257e+05  7.42e-08 6.22e-04  7.33e-06    15s
  50   5.17563242e+05  5.17561064e+05  4.62e-08 3.57e-04  4.42e-06    15s
  51   5.17562663e+05  5.17561334e+05  2.07e-08 2.69e-04  2.71e-06    15s
  52   5.17562511e+05  5.17561743e+05  1.42e-08 1.41e-04  1.56e-06    15s
  53   5.17562427e+05  5.17561864e+05  1.07e-08 1.04e-04  1.15e-06    15s
  54   5.17562371e+05  5.17561909e+05  8.27e-09 8.80e-05  9.43e-07    16s
  55   5.17562324e+05  5.17561947e+05  6.30e-09 7.48e-05  7.68e-07    16s
  56   5.17562247e+05  5.17561967e+05  3.15e-09 6.79e-05  5.74e-07    16s
  57   5.17562216e+05  5.17562123e+05  1.69e-09 1.47e-05  1.88e-07    16s
  58   5.17562180e+05  5.17562132e+05  3.63e-10 1.19e-05  9.92e-08    16s
  59   5.17562171e+05  5.17562169e+05  4.06e-11 6.44e-07  4.70e-09    16s

Barrier solved model in 59 iterations and 16.30 seconds
Optimal objective 5.17562171e+05


Root crossover log...

   35024 DPushes remaining with DInf 6.0428217e-05                16s
       0 DPushes remaining with DInf 0.0000000e+00                18s

    1554 PPushes remaining with PInf 0.0000000e+00                18s
       0 PPushes remaining with PInf 0.0000000e+00                18s

  Push phase complete: Pinf 0.0000000e+00, Dinf 2.4863578e-10     18s


Root simplex log...

Iteration    Objective       Primal Inf.    Dual Inf.      Time
   11753    5.1756217e+05   0.000000e+00   0.000000e+00     18s

Solved with barrier

Root relaxation: objective 5.175622e+05, 11753 iterations, 13.09 seconds

    Nodes    |    Current Node    |     Objective Bounds      |     Work
 Expl Unexpl |  Obj  Depth IntInf | Incumbent    BestBd   Gap | It/Node Time

     0     0 517562.169    0 25591 640600.000 517562.169  19.2%     -   20s
H    0     0                    535039.00000 517562.169  3.27%     -   23s
H    0     0                    534316.00000 517562.169  3.14%     -   38s
     0     0 517563.938    0 25589 534316.000 517563.938  3.14%     -   52s
     0     0 517566.249    0 25849 534316.000 517566.249  3.13%     -   72s
     0     0 517566.310    0 25846 534316.000 517566.310  3.13%     -   79s
     0     0 517566.396    0 25605 534316.000 517566.396  3.13%     -   84s
     0     0 517566.459    0 25851 534316.000 517566.459  3.13%     -   88s
     0     0 517566.459    0 25849 534316.000 517566.459  3.13%     -  100s
H    0     2                    532948.00000 517566.834  2.89%     -  181s
     0     2 517566.834    0 25849 532948.000 517566.834  2.89%     -  181s
     1     3 517877.295    1 25000 532948.000 517566.834  2.89% 30351  300s

Cutting planes:
  Gomory: 6

Explored 2 nodes (47106 simplex iterations) in 300.06 seconds
Thread count was 8 (of 8 available processors)

Solution count 4: 532948 534316 535039 640600 

Time limit reached
Best objective 5.329480000000e+05, best bound 5.175670000000e+05, gap 2.8860%

User-callback calls 51677, time in user-callback 0.31 sec
Solution written to /Users/mdeboute/Desktop/Etudes/Master/M2/S9/GOPP/Projet/multi-period-flp/solution/instSingle_I20_J1000_T8_0_result.txt
